sat
(
  (define-fun C1_VM5 () Int
    0)
  (define-fun C2_VM7 () Int
    1)
  (define-fun MemProv1 () Int
    15000)
  (define-fun C3_VM3 () Int
    0)
  (define-fun C4_VM5 () Int
    0)
  (define-fun C4_VM6 () Int
    0)
  (define-fun C5_VM8 () Int
    0)
  (define-fun StorageProv4 () Int
    2000)
  (define-fun C5_VM1 () Int
    1)
  (define-fun C4_VM1 () Int
    0)
  (define-fun C5_VM3 () Int
    0)
  (define-fun C2_VM8 () Int
    1)
  (define-fun C1_VM7 () Int
    1)
  (define-fun MemProv8 () Int
    15000)
  (define-fun C5_VM5 () Int
    0)
  (define-fun ProcProv4 () Int
    8)
  (define-fun C1_VM3 () Int
    1)
  (define-fun VM5Type () Int
    341)
  (define-fun C2_VM5 () Int
    0)
  (define-fun C5_VM7 () Int
    0)
  (define-fun VM4Type () Int
    278)
  (define-fun VM2Type () Int
    316)
  (define-fun C3_VM8 () Int
    0)
  (define-fun C5_VM4 () Int
    1)
  (define-fun PriceProv4 () Int
    420)
  (define-fun StorageProv5 () Int
    2000)
  (define-fun C1_VM8 () Int
    1)
  (define-fun C5_VM6 () Int
    0)
  (define-fun PriceProv2 () Int
    350)
  (define-fun C2_VM3 () Int
    1)
  (define-fun VM7Type () Int
    316)
  (define-fun ProcProv5 () Int
    4)
  (define-fun C4_VM4 () Int
    0)
  (define-fun C1_VM4 () Int
    1)
  (define-fun C3_VM6 () Int
    0)
  (define-fun MemProv6 () Int
    15000)
  (define-fun VM1Type () Int
    278)
  (define-fun ProcProv8 () Int
    4)
  (define-fun PriceProv7 () Int
    350)
  (define-fun PriceProv5 () Int
    210)
  (define-fun StorageProv6 () Int
    4000)
  (define-fun C1_VM2 () Int
    1)
  (define-fun StorageProv2 () Int
    4000)
  (define-fun C5_VM2 () Int
    0)
  (define-fun C3_VM2 () Int
    0)
  (define-fun MemProv3 () Int
    15000)
  (define-fun MemProv4 () Int
    15000)
  (define-fun C2_VM4 () Int
    0)
  (define-fun PriceProv8 () Int
    350)
  (define-fun C2_VM2 () Int
    1)
  (define-fun C4_VM2 () Int
    0)
  (define-fun MemProv7 () Int
    15000)
  (define-fun ProcProv2 () Int
    4)
  (define-fun MemProv5 () Int
    7500)
  (define-fun C2_VM1 () Int
    0)
  (define-fun C4_VM3 () Int
    0)
  (define-fun PriceProv6 () Int
    350)
  (define-fun StorageProv3 () Int
    4000)
  (define-fun C3_VM7 () Int
    0)
  (define-fun VM8Type () Int
    316)
  (define-fun C3_VM5 () Int
    1)
  (define-fun ProcProv1 () Int
    8)
  (define-fun MemProv2 () Int
    15000)
  (define-fun PriceProv1 () Int
    420)
  (define-fun VM6Type () Int
    316)
  (define-fun C2_VM6 () Int
    1)
  (define-fun ProcProv7 () Int
    4)
  (define-fun C1_VM1 () Int
    1)
  (define-fun C1_VM6 () Int
    1)
  (define-fun StorageProv7 () Int
    4000)
  (define-fun ProcProv3 () Int
    4)
  (define-fun ProcProv6 () Int
    4)
  (define-fun C4_VM7 () Int
    0)
  (define-fun StorageProv8 () Int
    4000)
  (define-fun C3_VM1 () Int
    0)
  (define-fun C4_VM8 () Int
    0)
  (define-fun PriceProv3 () Int
    350)
  (define-fun StorageProv1 () Int
    2000)
  (define-fun VM3Type () Int
    316)
  (define-fun C3_VM4 () Int
    0)
)
(objectives
 ( 3951)
 ((+ 0
   PriceProv1
   PriceProv2
   PriceProv3
   PriceProv4
   PriceProv5
   PriceProv6
   PriceProv7
   PriceProv8) 2800)
)
(:added-eqs                   17476295
 :arith-eq-adapter            98470700
 :arith-bound-propagations-lp 621927
 :arith-conflicts             170
 :arith-diseq                 117872120
 :arith-fixed-eqs             237225
 :arith-lower                 135345156
 :arith-make-feasible         12197487
 :arith-max-columns           591
 :arith-max-rows              26
 :arith-upper                 107876990
 :binary-propagations         284824424
 :bv-bit2core                 1929701
 :bv-dynamic-diseqs           130263270
 :bv->core-eq                 2030
 :conflicts                   186932
 :decisions                   68992957
 :del-clause                  193794569
 :final-checks                7938
 :max-memory                  303.68
 :maxsat-cores                3912
 :memory                      282.16
 :minimized-lits              582456
 :mk-bool-var                 88808419
 :mk-clause                   193799136
 :mk-clause-binary            32089
 :num-allocs                  359540338891994.00
 :num-checks                  13824
 :pb-conflicts                622
 :pb-predicates               7
 :pb-propagations             248629
 :pb-resolves                 156
 :propagations                572369875
 :restarts                    464
 :rlimit-count                4282862840
 :time                        839.90
 :total-time                  808.74)
